decision_x1=[0,4];
decision_x2=[0,4];
decision_x3=[0,4];
decision_x4=[0,4];
random_y1=[0,4];
random_y2=[0,4];
constraint_x3_x1=[
0,1,6.6|
0,2,7|
0,3,6.3|
0,4,5.4|
1,0,2.1|
1,2,8.7|
1,3,5.1|
1,4,8.2|
2,0,5|
2,1,6.8|
2,3,9.3|
2,4,8.8|
3,0,1.7|
3,1,0.36|
3,2,7.9|
3,4,6.4|
4,0,5|
4,1,7.2|
4,2,5.8|
4,3,6.2|
];
constraint_x3_x2=[
0,1,0.73|
0,2,3.7|
0,3,7.7|
0,4,9.2|
1,0,7.6|
1,2,2.7|
1,3,3.8|
1,4,7.1|
2,0,8|
2,1,5|
2,3,7.9|
2,4,7|
3,0,3.4|
3,1,1.6|
3,2,4.7|
3,4,0.0077|
4,0,7.8|
4,1,1.4|
4,2,4.2|
4,3,5.3|
];
constraint_x4_x3=[
0,1,2.6|
0,2,6.5|
0,3,4.7|
0,4,5.4|
1,0,8.6|
1,2,3.9|
1,3,5.3|
1,4,7.8|
2,0,0.62|
2,1,1.2|
2,3,8.7|
2,4,5.2|
3,0,9.6|
3,1,6.7|
3,2,2|
3,4,1.9|
4,0,4|
4,1,7.2|
4,2,1.5|
4,3,6.6|
];
constraint_x1_y1=[
0,0,10|
0,1,4.5|
0,2,8.6|
0,3,3.2|
0,4,0.23|
1,0,8.2|
1,1,1.6|
1,2,2|
1,3,2.4|
1,4,3.4|
2,0,3.6|
2,1,9.6|
2,2,0.82|
2,3,5.3|
2,4,3.8|
3,0,3.9|
3,1,5.6|
3,2,0.63|
3,3,6.3|
3,4,4.1|
4,0,2.9|
4,1,8.4|
4,2,4.3|
4,3,4.5|
4,4,2.2|
];
constraint_x2_y2=[
0,0,9.4|
0,1,7.4|
0,2,7.1|
0,3,8.1|
0,4,8.6|
1,0,2.2|
1,1,9.6|
1,2,2.9|
1,3,1.8|
1,4,7|
2,0,8.8|
2,1,3.9|
2,2,0.15|
2,3,5.3|
2,4,4.7|
3,0,6.9|
3,1,2.2|
3,2,0.9|
3,3,9.3|
3,4,9.3|
4,0,5.8|
4,1,2.5|
4,2,8.9|
4,3,7.6|
4,4,2.3|
];
initial_distribution_y1=[0.13,0.37,0.058,0.36,0.083];
initial_distribution_y2=[0.24,0.034,0.44,0.016,0.27];
transition_y1=[
0.32,0.028,0.31,0.19,0.15|
0.054,0.26,0.16,0.29,0.23|
0.28,0.12,0.25,0.13,0.22|
0.57,0.34,0.027,0.046,0.011|
0.36,0.026,0.31,0.15,0.16|
];
transition_y2=[
0.11,0.071,0.22,0.32,0.28|
0.31,0.2,0.21,0.15,0.13|
0.14,0.086,0.25,0.31,0.21|
0.092,0.3,0.32,0.25,0.041|
0.29,0.27,0.2,0.19,0.048|
];
